* (set-option :incremental false)
* (set-info :status unsat)
* (set-logic QF_BV)
* (declare-fun x () (_ BitVec 6))
* (assert (= ((_ extract 5 2) x) ((_ extract 3 0) x)))
* (check-sat-assuming ( (not (= ((_ extract 5 4) x) ((_ extract 1 0) x))) ))
* unsat
* #variable= 20 #constraint= 22
+1 x6 -1 x12 = 0;
+1 x8 -1 x14 = 0;
+1 x7 -1 x1 = 0;
+1 x7 -1 x13 = 0;
+1 x8 -1 x2 = 0;
+1 x9 -1 x3 = 0;
+1 x10 -1 x4 = 0;
+1 x5 -1 x11 = 0;
+1 x1 +2 x2 +4 x3 +8 x4 -1 x11 -2 x12 -4 x13 -8 x14 = 0;
+1 x17 +1 x19 -1 x15 >= 0;
+1 x17 -1 x19 +1 x15 >= 0;
+1 x5 -1 x19 = 0;
-1 x17 +1 x19 +1 x15 >= 0;
+1 x9 -1 x17 = 0;
-1 x17 -1 x19 -1 x15 >= -2;
+1 x18 +1 x20 -1 x16 >= 0;
+1 x18 -1 x20 +1 x16 >= 0;
-1 x18 +1 x20 +1 x16 >= 0;
-1 x18 -1 x20 -1 x16 >= -2;
+1 x6 -1 x20 = 0;
+1 x10 -1 x18 = 0;
+1 x15 +1 x16 >= 1;
